Minimize
	value: tt

Subject to
s_1_12 = 1
tt + 1000 s_1_1 > 0.0
tt - t_1_1 - 1000.000000 s_1_1  > -989.928300
tt + 1000 s_2_1 > 0.0
tt - t_2_1 - 1000.000000 s_2_1  > -995.502800
tt + 1000 s_1_2 > 0.0
tt - t_1_2 - 1000.000000 s_1_2  > -995.027400
tt + 1000 s_2_2 > 0.0
tt - t_2_2 - 1000.000000 s_2_2  > -997.258667
tt + 1000 s_1_3 > 0.0
tt - t_1_3 - 1000.000000 s_1_3  > -992.665100
tt + 1000 s_2_3 > 0.0
tt - t_2_3 - 1000.000000 s_2_3  > -995.885200
tt + 1000 s_1_4 > 0.0
tt - t_1_4 - 1000.000000 s_1_4  > -989.837500
tt + 1000 s_2_4 > 0.0
tt - t_2_4 - 1000.000000 s_2_4  > -995.354100
tt + 1000 s_1_5 > 0.0
tt - t_1_5 - 1000.000000 s_1_5  > -994.952800
tt + 1000 s_2_5 > 0.0
tt - t_2_5 - 1000.000000 s_2_5  > -997.370222
tt + 1000 s_1_6 > 0.0
tt - t_1_6 - 1000.000000 s_1_6  > -993.434200
tt + 1000 s_2_6 > 0.0
tt - t_2_6 - 1000.000000 s_2_6  > -996.791500
tt + 1000 s_1_7 > 0.0
tt - t_1_7 - 1000.000000 s_1_7  > -992.689600
tt + 1000 s_2_7 > 0.0
tt - t_2_7 - 1000.000000 s_2_7  > -996.028500
tt + 1000 s_1_8 > 0.0
tt - t_1_8 - 1000.000000 s_1_8  > -990.918600
tt + 1000 s_2_8 > 0.0
tt - t_2_8 - 1000.000000 s_2_8  > -995.695900
tt + 1000 s_1_9 > 0.0
tt - t_1_9 - 1000.000000 s_1_9  > -990.438700
tt + 1000 s_2_9 > 0.0
tt - t_2_9 - 1000.000000 s_2_9  > -995.177300
tt + 1000 s_1_10 > 0.0
tt - t_1_10 - 1000.000000 s_1_10  > -998.773300
tt + 1000 s_2_10 > 0.0
tt - t_2_10 - 1000.000000 s_2_10  > -998.635222
tt + 1000 s_1_11 > 0.0
tt - t_1_11 - 1000.000000 s_1_11  > -996.520000
tt + 1000 s_2_11 > 0.0
tt - t_2_11 - 1000.000000 s_2_11  > -998.253100
tt + 1000 s_1_12 > 0.0
tt - t_1_12 - 1000.000000 s_1_12  > -999.766000
tt + 1000 s_2_12 > 0.0
tt - t_2_12 - 1000.000000 s_2_12  > -999.009375
s_1_1 + s_2_1 = 1
s_1_2 + s_2_2 = 1
s_1_3 + s_2_3 = 1
s_1_4 + s_2_4 = 1
s_1_5 + s_2_5 = 1
s_1_6 + s_2_6 = 1
s_1_7 + s_2_7 = 1
s_1_8 + s_2_8 = 1
s_1_9 + s_2_9 = 1
s_1_10 + s_2_10 = 1
s_1_11 + s_2_11 = 1
s_1_12 + s_2_12 = 1
s_1_1 + s_1_2 + 1000 r_1_1_2 >= 2
- s_1_1 - s_1_2 - 1000 r_1_1_2 >= -1001
t_1_1 - t_1_2 - 1000.000000 u_1_1_2 - 0.000000 s_1_2  + 2000.000000 r_1_1_2 > -995.027400
s_2_1 + s_2_2 + 1000 r_2_1_2 >= 2
- s_2_1 - s_2_2 - 1000 r_2_1_2 >= -1001
t_2_1 - t_2_2 - 1000.000000 u_2_1_2 - 0.000000 s_2_2  + 2000.000000 r_2_1_2 > -997.258667
s_1_1 + s_1_3 + 1000 r_1_1_3 >= 2
- s_1_1 - s_1_3 - 1000 r_1_1_3 >= -1001
t_1_1 - t_1_3 - 1000.000000 u_1_1_3 - 0.000000 s_1_3  + 2000.000000 r_1_1_3 > -992.665100
s_2_1 + s_2_3 + 1000 r_2_1_3 >= 2
- s_2_1 - s_2_3 - 1000 r_2_1_3 >= -1001
t_2_1 - t_2_3 - 1000.000000 u_2_1_3 - 0.000000 s_2_3  + 2000.000000 r_2_1_3 > -995.885200
s_1_1 + s_1_4 + 1000 r_1_1_4 >= 2
- s_1_1 - s_1_4 - 1000 r_1_1_4 >= -1001
t_1_1 - t_1_4 - 1000.000000 u_1_1_4 - 0.000000 s_1_4  + 2000.000000 r_1_1_4 > -989.837500
s_2_1 + s_2_4 + 1000 r_2_1_4 >= 2
- s_2_1 - s_2_4 - 1000 r_2_1_4 >= -1001
t_2_1 - t_2_4 - 1000.000000 u_2_1_4 - 0.000000 s_2_4  + 2000.000000 r_2_1_4 > -995.354100
s_1_1 + s_1_5 + 1000 r_1_1_5 >= 2
- s_1_1 - s_1_5 - 1000 r_1_1_5 >= -1001
t_1_1 - t_1_5 - 1000.000000 u_1_1_5 - 0.000000 s_1_5  + 2000.000000 r_1_1_5 > -994.952800
s_2_1 + s_2_5 + 1000 r_2_1_5 >= 2
- s_2_1 - s_2_5 - 1000 r_2_1_5 >= -1001
t_2_1 - t_2_5 - 1000.000000 u_2_1_5 - 0.000000 s_2_5  + 2000.000000 r_2_1_5 > -997.370222
s_1_1 + s_1_6 + 1000 r_1_1_6 >= 2
- s_1_1 - s_1_6 - 1000 r_1_1_6 >= -1001
t_1_1 - t_1_6 - 1000.000000 u_1_1_6 - 0.000000 s_1_6  + 2000.000000 r_1_1_6 > -993.434200
s_2_1 + s_2_6 + 1000 r_2_1_6 >= 2
- s_2_1 - s_2_6 - 1000 r_2_1_6 >= -1001
t_2_1 - t_2_6 - 1000.000000 u_2_1_6 - 0.000000 s_2_6  + 2000.000000 r_2_1_6 > -996.791500
s_1_1 + s_1_7 + 1000 r_1_1_7 >= 2
- s_1_1 - s_1_7 - 1000 r_1_1_7 >= -1001
t_1_1 - t_1_7 - 1000.000000 u_1_1_7 - 0.000000 s_1_7  + 2000.000000 r_1_1_7 > -992.689600
s_2_1 + s_2_7 + 1000 r_2_1_7 >= 2
- s_2_1 - s_2_7 - 1000 r_2_1_7 >= -1001
t_2_1 - t_2_7 - 1000.000000 u_2_1_7 - 0.000000 s_2_7  + 2000.000000 r_2_1_7 > -996.028500
s_1_1 + s_1_8 + 1000 r_1_1_8 >= 2
- s_1_1 - s_1_8 - 1000 r_1_1_8 >= -1001
t_1_1 - t_1_8 - 1000.000000 u_1_1_8 - 0.000000 s_1_8  + 2000.000000 r_1_1_8 > -990.918600
s_2_1 + s_2_8 + 1000 r_2_1_8 >= 2
- s_2_1 - s_2_8 - 1000 r_2_1_8 >= -1001
t_2_1 - t_2_8 - 1000.000000 u_2_1_8 - 0.000000 s_2_8  + 2000.000000 r_2_1_8 > -995.695900
s_1_1 + s_1_9 + 1000 r_1_1_9 >= 2
- s_1_1 - s_1_9 - 1000 r_1_1_9 >= -1001
t_1_1 - t_1_9 - 1000.000000 u_1_1_9 - 0.000000 s_1_9  + 2000.000000 r_1_1_9 > -990.438700
s_2_1 + s_2_9 + 1000 r_2_1_9 >= 2
- s_2_1 - s_2_9 - 1000 r_2_1_9 >= -1001
t_2_1 - t_2_9 - 1000.000000 u_2_1_9 - 0.000000 s_2_9  + 2000.000000 r_2_1_9 > -995.177300
s_1_1 + s_1_10 + 1000 r_1_1_10 >= 2
- s_1_1 - s_1_10 - 1000 r_1_1_10 >= -1001
t_1_1 - t_1_10 - 1000.000000 u_1_1_10 - 0.000000 s_1_10  + 2000.000000 r_1_1_10 > -998.773300
s_2_1 + s_2_10 + 1000 r_2_1_10 >= 2
- s_2_1 - s_2_10 - 1000 r_2_1_10 >= -1001
t_2_1 - t_2_10 - 1000.000000 u_2_1_10 - 0.000000 s_2_10  + 2000.000000 r_2_1_10 > -998.635222
s_1_1 + s_1_11 + 1000 r_1_1_11 >= 2
- s_1_1 - s_1_11 - 1000 r_1_1_11 >= -1001
t_1_1 - t_1_11 - 1000.000000 u_1_1_11 - 0.000000 s_1_11  + 2000.000000 r_1_1_11 > -996.520000
s_2_1 + s_2_11 + 1000 r_2_1_11 >= 2
- s_2_1 - s_2_11 - 1000 r_2_1_11 >= -1001
t_2_1 - t_2_11 - 1000.000000 u_2_1_11 - 0.000000 s_2_11  + 2000.000000 r_2_1_11 > -998.253100
t_1_12 - t_1_1 - 1000.000000 s_1_1  > -989.928300
t_1_12 - t_2_1 - 1000.000000 s_2_1  > -995.502800
t_2_12 - t_1_1 - 1000.000000 s_1_1  > -989.928300
t_2_12 - t_2_1 - 1000.000000 s_2_1  > -995.502800
s_1_2 + s_1_1 + 1000 r_1_1_2 >= 2
- s_1_2 - s_1_1 - 1000 r_1_1_2 >= -1001
t_1_2 - t_1_1 + 1000.000000 u_1_1_2 - 0.000000 s_1_1  + 2000.000000 r_1_1_2 > 10.071700
s_2_2 + s_2_1 + 1000 r_2_1_2 >= 2
- s_2_2 - s_2_1 - 1000 r_2_1_2 >= -1001
t_2_2 - t_2_1 + 1000.000000 u_2_1_2 - 0.000000 s_2_1  + 2000.000000 r_2_1_2 > 4.497200
t_1_3 - t_1_2 - 1000.000000 s_1_2  > -995.027400
t_1_3 - t_2_2 - 1000.000000 s_2_2  > -997.258667
t_2_3 - t_1_2 - 1000.000000 s_1_2  > -995.027400
t_2_3 - t_2_2 - 1000.000000 s_2_2  > -997.258667
s_1_2 + s_1_5 + 1000 r_1_2_5 >= 2
- s_1_2 - s_1_5 - 1000 r_1_2_5 >= -1001
t_1_2 - t_1_5 - 1000.000000 u_1_2_5 - 0.000000 s_1_5  + 2000.000000 r_1_2_5 > -994.952800
s_2_2 + s_2_5 + 1000 r_2_2_5 >= 2
- s_2_2 - s_2_5 - 1000 r_2_2_5 >= -1001
t_2_2 - t_2_5 - 1000.000000 u_2_2_5 - 0.000000 s_2_5  + 2000.000000 r_2_2_5 > -997.370222
s_1_2 + s_1_6 + 1000 r_1_2_6 >= 2
- s_1_2 - s_1_6 - 1000 r_1_2_6 >= -1001
t_1_2 - t_1_6 - 1000.000000 u_1_2_6 - 0.000000 s_1_6  + 2000.000000 r_1_2_6 > -993.434200
s_2_2 + s_2_6 + 1000 r_2_2_6 >= 2
- s_2_2 - s_2_6 - 1000 r_2_2_6 >= -1001
t_2_2 - t_2_6 - 1000.000000 u_2_2_6 - 0.000000 s_2_6  + 2000.000000 r_2_2_6 > -996.791500
s_1_2 + s_1_7 + 1000 r_1_2_7 >= 2
- s_1_2 - s_1_7 - 1000 r_1_2_7 >= -1001
t_1_2 - t_1_7 - 1000.000000 u_1_2_7 - 0.000000 s_1_7  + 2000.000000 r_1_2_7 > -992.689600
s_2_2 + s_2_7 + 1000 r_2_2_7 >= 2
- s_2_2 - s_2_7 - 1000 r_2_2_7 >= -1001
t_2_2 - t_2_7 - 1000.000000 u_2_2_7 - 0.000000 s_2_7  + 2000.000000 r_2_2_7 > -996.028500
s_1_2 + s_1_8 + 1000 r_1_2_8 >= 2
- s_1_2 - s_1_8 - 1000 r_1_2_8 >= -1001
t_1_2 - t_1_8 - 1000.000000 u_1_2_8 - 0.000000 s_1_8  + 2000.000000 r_1_2_8 > -990.918600
s_2_2 + s_2_8 + 1000 r_2_2_8 >= 2
- s_2_2 - s_2_8 - 1000 r_2_2_8 >= -1001
t_2_2 - t_2_8 - 1000.000000 u_2_2_8 - 0.000000 s_2_8  + 2000.000000 r_2_2_8 > -995.695900
s_1_2 + s_1_9 + 1000 r_1_2_9 >= 2
- s_1_2 - s_1_9 - 1000 r_1_2_9 >= -1001
t_1_2 - t_1_9 - 1000.000000 u_1_2_9 - 0.000000 s_1_9  + 2000.000000 r_1_2_9 > -990.438700
s_2_2 + s_2_9 + 1000 r_2_2_9 >= 2
- s_2_2 - s_2_9 - 1000 r_2_2_9 >= -1001
t_2_2 - t_2_9 - 1000.000000 u_2_2_9 - 0.000000 s_2_9  + 2000.000000 r_2_2_9 > -995.177300
s_1_2 + s_1_10 + 1000 r_1_2_10 >= 2
- s_1_2 - s_1_10 - 1000 r_1_2_10 >= -1001
t_1_2 - t_1_10 - 1000.000000 u_1_2_10 - 0.000000 s_1_10  + 2000.000000 r_1_2_10 > -998.773300
s_2_2 + s_2_10 + 1000 r_2_2_10 >= 2
- s_2_2 - s_2_10 - 1000 r_2_2_10 >= -1001
t_2_2 - t_2_10 - 1000.000000 u_2_2_10 - 0.000000 s_2_10  + 2000.000000 r_2_2_10 > -998.635222
s_1_2 + s_1_11 + 1000 r_1_2_11 >= 2
- s_1_2 - s_1_11 - 1000 r_1_2_11 >= -1001
t_1_2 - t_1_11 - 1000.000000 u_1_2_11 - 0.000000 s_1_11  + 2000.000000 r_1_2_11 > -996.520000
s_2_2 + s_2_11 + 1000 r_2_2_11 >= 2
- s_2_2 - s_2_11 - 1000 r_2_2_11 >= -1001
t_2_2 - t_2_11 - 1000.000000 u_2_2_11 - 0.000000 s_2_11  + 2000.000000 r_2_2_11 > -998.253100
s_1_3 + s_1_1 + 1000 r_1_1_3 >= 2
- s_1_3 - s_1_1 - 1000 r_1_1_3 >= -1001
t_1_3 - t_1_1 + 1000.000000 u_1_1_3 - 0.000000 s_1_1  + 2000.000000 r_1_1_3 > 10.071700
s_2_3 + s_2_1 + 1000 r_2_1_3 >= 2
- s_2_3 - s_2_1 - 1000 r_2_1_3 >= -1001
t_2_3 - t_2_1 + 1000.000000 u_2_1_3 - 0.000000 s_2_1  + 2000.000000 r_2_1_3 > 4.497200
t_1_4 - t_1_3 - 1000.000000 s_1_3  > -992.665100
t_1_4 - t_2_3 - 1000.000000 s_2_3  > -995.885200
t_2_4 - t_1_3 - 1000.000000 s_1_3  > -992.665100
t_2_4 - t_2_3 - 1000.000000 s_2_3  > -995.885200
s_1_3 + s_1_5 + 1000 r_1_3_5 >= 2
- s_1_3 - s_1_5 - 1000 r_1_3_5 >= -1001
t_1_3 - t_1_5 - 1000.000000 u_1_3_5 - 0.000000 s_1_5  + 2000.000000 r_1_3_5 > -994.952800
s_2_3 + s_2_5 + 1000 r_2_3_5 >= 2
- s_2_3 - s_2_5 - 1000 r_2_3_5 >= -1001
t_2_3 - t_2_5 - 1000.000000 u_2_3_5 - 0.000000 s_2_5  + 2000.000000 r_2_3_5 > -997.370222
s_1_3 + s_1_6 + 1000 r_1_3_6 >= 2
- s_1_3 - s_1_6 - 1000 r_1_3_6 >= -1001
t_1_3 - t_1_6 - 1000.000000 u_1_3_6 - 0.000000 s_1_6  + 2000.000000 r_1_3_6 > -993.434200
s_2_3 + s_2_6 + 1000 r_2_3_6 >= 2
- s_2_3 - s_2_6 - 1000 r_2_3_6 >= -1001
t_2_3 - t_2_6 - 1000.000000 u_2_3_6 - 0.000000 s_2_6  + 2000.000000 r_2_3_6 > -996.791500
s_1_3 + s_1_7 + 1000 r_1_3_7 >= 2
- s_1_3 - s_1_7 - 1000 r_1_3_7 >= -1001
t_1_3 - t_1_7 - 1000.000000 u_1_3_7 - 0.000000 s_1_7  + 2000.000000 r_1_3_7 > -992.689600
s_2_3 + s_2_7 + 1000 r_2_3_7 >= 2
- s_2_3 - s_2_7 - 1000 r_2_3_7 >= -1001
t_2_3 - t_2_7 - 1000.000000 u_2_3_7 - 0.000000 s_2_7  + 2000.000000 r_2_3_7 > -996.028500
s_1_3 + s_1_8 + 1000 r_1_3_8 >= 2
- s_1_3 - s_1_8 - 1000 r_1_3_8 >= -1001
t_1_3 - t_1_8 - 1000.000000 u_1_3_8 - 0.000000 s_1_8  + 2000.000000 r_1_3_8 > -990.918600
s_2_3 + s_2_8 + 1000 r_2_3_8 >= 2
- s_2_3 - s_2_8 - 1000 r_2_3_8 >= -1001
t_2_3 - t_2_8 - 1000.000000 u_2_3_8 - 0.000000 s_2_8  + 2000.000000 r_2_3_8 > -995.695900
s_1_3 + s_1_9 + 1000 r_1_3_9 >= 2
- s_1_3 - s_1_9 - 1000 r_1_3_9 >= -1001
t_1_3 - t_1_9 - 1000.000000 u_1_3_9 - 0.000000 s_1_9  + 2000.000000 r_1_3_9 > -990.438700
s_2_3 + s_2_9 + 1000 r_2_3_9 >= 2
- s_2_3 - s_2_9 - 1000 r_2_3_9 >= -1001
t_2_3 - t_2_9 - 1000.000000 u_2_3_9 - 0.000000 s_2_9  + 2000.000000 r_2_3_9 > -995.177300
s_1_3 + s_1_10 + 1000 r_1_3_10 >= 2
- s_1_3 - s_1_10 - 1000 r_1_3_10 >= -1001
t_1_3 - t_1_10 - 1000.000000 u_1_3_10 - 0.000000 s_1_10  + 2000.000000 r_1_3_10 > -998.773300
s_2_3 + s_2_10 + 1000 r_2_3_10 >= 2
- s_2_3 - s_2_10 - 1000 r_2_3_10 >= -1001
t_2_3 - t_2_10 - 1000.000000 u_2_3_10 - 0.000000 s_2_10  + 2000.000000 r_2_3_10 > -998.635222
s_1_3 + s_1_11 + 1000 r_1_3_11 >= 2
- s_1_3 - s_1_11 - 1000 r_1_3_11 >= -1001
t_1_3 - t_1_11 - 1000.000000 u_1_3_11 - 0.000000 s_1_11  + 2000.000000 r_1_3_11 > -996.520000
s_2_3 + s_2_11 + 1000 r_2_3_11 >= 2
- s_2_3 - s_2_11 - 1000 r_2_3_11 >= -1001
t_2_3 - t_2_11 - 1000.000000 u_2_3_11 - 0.000000 s_2_11  + 2000.000000 r_2_3_11 > -998.253100
s_1_4 + s_1_1 + 1000 r_1_1_4 >= 2
- s_1_4 - s_1_1 - 1000 r_1_1_4 >= -1001
t_1_4 - t_1_1 + 1000.000000 u_1_1_4 - 0.000000 s_1_1  + 2000.000000 r_1_1_4 > 10.071700
s_2_4 + s_2_1 + 1000 r_2_1_4 >= 2
- s_2_4 - s_2_1 - 1000 r_2_1_4 >= -1001
t_2_4 - t_2_1 + 1000.000000 u_2_1_4 - 0.000000 s_2_1  + 2000.000000 r_2_1_4 > 4.497200
s_1_4 + s_1_5 + 1000 r_1_4_5 >= 2
- s_1_4 - s_1_5 - 1000 r_1_4_5 >= -1001
t_1_4 - t_1_5 - 1000.000000 u_1_4_5 - 0.000000 s_1_5  + 2000.000000 r_1_4_5 > -994.952800
s_2_4 + s_2_5 + 1000 r_2_4_5 >= 2
- s_2_4 - s_2_5 - 1000 r_2_4_5 >= -1001
t_2_4 - t_2_5 - 1000.000000 u_2_4_5 - 0.000000 s_2_5  + 2000.000000 r_2_4_5 > -997.370222
s_1_4 + s_1_6 + 1000 r_1_4_6 >= 2
- s_1_4 - s_1_6 - 1000 r_1_4_6 >= -1001
t_1_4 - t_1_6 - 1000.000000 u_1_4_6 - 0.000000 s_1_6  + 2000.000000 r_1_4_6 > -993.434200
s_2_4 + s_2_6 + 1000 r_2_4_6 >= 2
- s_2_4 - s_2_6 - 1000 r_2_4_6 >= -1001
t_2_4 - t_2_6 - 1000.000000 u_2_4_6 - 0.000000 s_2_6  + 2000.000000 r_2_4_6 > -996.791500
s_1_4 + s_1_7 + 1000 r_1_4_7 >= 2
- s_1_4 - s_1_7 - 1000 r_1_4_7 >= -1001
t_1_4 - t_1_7 - 1000.000000 u_1_4_7 - 0.000000 s_1_7  + 2000.000000 r_1_4_7 > -992.689600
s_2_4 + s_2_7 + 1000 r_2_4_7 >= 2
- s_2_4 - s_2_7 - 1000 r_2_4_7 >= -1001
t_2_4 - t_2_7 - 1000.000000 u_2_4_7 - 0.000000 s_2_7  + 2000.000000 r_2_4_7 > -996.028500
s_1_4 + s_1_8 + 1000 r_1_4_8 >= 2
- s_1_4 - s_1_8 - 1000 r_1_4_8 >= -1001
t_1_4 - t_1_8 - 1000.000000 u_1_4_8 - 0.000000 s_1_8  + 2000.000000 r_1_4_8 > -990.918600
s_2_4 + s_2_8 + 1000 r_2_4_8 >= 2
- s_2_4 - s_2_8 - 1000 r_2_4_8 >= -1001
t_2_4 - t_2_8 - 1000.000000 u_2_4_8 - 0.000000 s_2_8  + 2000.000000 r_2_4_8 > -995.695900
s_1_4 + s_1_9 + 1000 r_1_4_9 >= 2
- s_1_4 - s_1_9 - 1000 r_1_4_9 >= -1001
t_1_4 - t_1_9 - 1000.000000 u_1_4_9 - 0.000000 s_1_9  + 2000.000000 r_1_4_9 > -990.438700
s_2_4 + s_2_9 + 1000 r_2_4_9 >= 2
- s_2_4 - s_2_9 - 1000 r_2_4_9 >= -1001
t_2_4 - t_2_9 - 1000.000000 u_2_4_9 - 0.000000 s_2_9  + 2000.000000 r_2_4_9 > -995.177300
s_1_4 + s_1_10 + 1000 r_1_4_10 >= 2
- s_1_4 - s_1_10 - 1000 r_1_4_10 >= -1001
t_1_4 - t_1_10 - 1000.000000 u_1_4_10 - 0.000000 s_1_10  + 2000.000000 r_1_4_10 > -998.773300
s_2_4 + s_2_10 + 1000 r_2_4_10 >= 2
- s_2_4 - s_2_10 - 1000 r_2_4_10 >= -1001
t_2_4 - t_2_10 - 1000.000000 u_2_4_10 - 0.000000 s_2_10  + 2000.000000 r_2_4_10 > -998.635222
s_1_4 + s_1_11 + 1000 r_1_4_11 >= 2
- s_1_4 - s_1_11 - 1000 r_1_4_11 >= -1001
t_1_4 - t_1_11 - 1000.000000 u_1_4_11 - 0.000000 s_1_11  + 2000.000000 r_1_4_11 > -996.520000
s_2_4 + s_2_11 + 1000 r_2_4_11 >= 2
- s_2_4 - s_2_11 - 1000 r_2_4_11 >= -1001
t_2_4 - t_2_11 - 1000.000000 u_2_4_11 - 0.000000 s_2_11  + 2000.000000 r_2_4_11 > -998.253100
t_1_12 - t_1_4 - 1000.000000 s_1_4  > -989.837500
t_1_12 - t_2_4 - 1000.000000 s_2_4  > -995.354100
t_2_12 - t_1_4 - 1000.000000 s_1_4  > -989.837500
t_2_12 - t_2_4 - 1000.000000 s_2_4  > -995.354100
s_1_5 + s_1_1 + 1000 r_1_1_5 >= 2
- s_1_5 - s_1_1 - 1000 r_1_1_5 >= -1001
t_1_5 - t_1_1 + 1000.000000 u_1_1_5 - 0.000000 s_1_1  + 2000.000000 r_1_1_5 > 10.071700
s_2_5 + s_2_1 + 1000 r_2_1_5 >= 2
- s_2_5 - s_2_1 - 1000 r_2_1_5 >= -1001
t_2_5 - t_2_1 + 1000.000000 u_2_1_5 - 0.000000 s_2_1  + 2000.000000 r_2_1_5 > 4.497200
s_1_5 + s_1_2 + 1000 r_1_2_5 >= 2
- s_1_5 - s_1_2 - 1000 r_1_2_5 >= -1001
t_1_5 - t_1_2 + 1000.000000 u_1_2_5 - 0.000000 s_1_2  + 2000.000000 r_1_2_5 > 4.972600
s_2_5 + s_2_2 + 1000 r_2_2_5 >= 2
- s_2_5 - s_2_2 - 1000 r_2_2_5 >= -1001
t_2_5 - t_2_2 + 1000.000000 u_2_2_5 - 0.000000 s_2_2  + 2000.000000 r_2_2_5 > 2.741333
s_1_5 + s_1_3 + 1000 r_1_3_5 >= 2
- s_1_5 - s_1_3 - 1000 r_1_3_5 >= -1001
t_1_5 - t_1_3 + 1000.000000 u_1_3_5 - 0.000000 s_1_3  + 2000.000000 r_1_3_5 > 7.334900
s_2_5 + s_2_3 + 1000 r_2_3_5 >= 2
- s_2_5 - s_2_3 - 1000 r_2_3_5 >= -1001
t_2_5 - t_2_3 + 1000.000000 u_2_3_5 - 0.000000 s_2_3  + 2000.000000 r_2_3_5 > 4.114800
s_1_5 + s_1_4 + 1000 r_1_4_5 >= 2
- s_1_5 - s_1_4 - 1000 r_1_4_5 >= -1001
t_1_5 - t_1_4 + 1000.000000 u_1_4_5 - 0.000000 s_1_4  + 2000.000000 r_1_4_5 > 10.162500
s_2_5 + s_2_4 + 1000 r_2_4_5 >= 2
- s_2_5 - s_2_4 - 1000 r_2_4_5 >= -1001
t_2_5 - t_2_4 + 1000.000000 u_2_4_5 - 0.000000 s_2_4  + 2000.000000 r_2_4_5 > 4.645900
t_1_6 - t_1_5 - 1000.000000 s_1_5  > -994.952800
t_1_6 - t_2_5 - 1000.000000 s_2_5  > -997.370222
t_2_6 - t_1_5 - 1000.000000 s_1_5  > -994.952800
t_2_6 - t_2_5 - 1000.000000 s_2_5  > -997.370222
s_1_5 + s_1_10 + 1000 r_1_5_10 >= 2
- s_1_5 - s_1_10 - 1000 r_1_5_10 >= -1001
t_1_5 - t_1_10 - 1000.000000 u_1_5_10 - 0.000000 s_1_10  + 2000.000000 r_1_5_10 > -998.773300
s_2_5 + s_2_10 + 1000 r_2_5_10 >= 2
- s_2_5 - s_2_10 - 1000 r_2_5_10 >= -1001
t_2_5 - t_2_10 - 1000.000000 u_2_5_10 - 0.000000 s_2_10  + 2000.000000 r_2_5_10 > -998.635222
s_1_5 + s_1_11 + 1000 r_1_5_11 >= 2
- s_1_5 - s_1_11 - 1000 r_1_5_11 >= -1001
t_1_5 - t_1_11 - 1000.000000 u_1_5_11 - 0.000000 s_1_11  + 2000.000000 r_1_5_11 > -996.520000
s_2_5 + s_2_11 + 1000 r_2_5_11 >= 2
- s_2_5 - s_2_11 - 1000 r_2_5_11 >= -1001
t_2_5 - t_2_11 - 1000.000000 u_2_5_11 - 0.000000 s_2_11  + 2000.000000 r_2_5_11 > -998.253100
s_1_6 + s_1_1 + 1000 r_1_1_6 >= 2
- s_1_6 - s_1_1 - 1000 r_1_1_6 >= -1001
t_1_6 - t_1_1 + 1000.000000 u_1_1_6 - 0.000000 s_1_1  + 2000.000000 r_1_1_6 > 10.071700
s_2_6 + s_2_1 + 1000 r_2_1_6 >= 2
- s_2_6 - s_2_1 - 1000 r_2_1_6 >= -1001
t_2_6 - t_2_1 + 1000.000000 u_2_1_6 - 0.000000 s_2_1  + 2000.000000 r_2_1_6 > 4.497200
s_1_6 + s_1_2 + 1000 r_1_2_6 >= 2
- s_1_6 - s_1_2 - 1000 r_1_2_6 >= -1001
t_1_6 - t_1_2 + 1000.000000 u_1_2_6 - 0.000000 s_1_2  + 2000.000000 r_1_2_6 > 4.972600
s_2_6 + s_2_2 + 1000 r_2_2_6 >= 2
- s_2_6 - s_2_2 - 1000 r_2_2_6 >= -1001
t_2_6 - t_2_2 + 1000.000000 u_2_2_6 - 0.000000 s_2_2  + 2000.000000 r_2_2_6 > 2.741333
s_1_6 + s_1_3 + 1000 r_1_3_6 >= 2
- s_1_6 - s_1_3 - 1000 r_1_3_6 >= -1001
t_1_6 - t_1_3 + 1000.000000 u_1_3_6 - 0.000000 s_1_3  + 2000.000000 r_1_3_6 > 7.334900
s_2_6 + s_2_3 + 1000 r_2_3_6 >= 2
- s_2_6 - s_2_3 - 1000 r_2_3_6 >= -1001
t_2_6 - t_2_3 + 1000.000000 u_2_3_6 - 0.000000 s_2_3  + 2000.000000 r_2_3_6 > 4.114800
s_1_6 + s_1_4 + 1000 r_1_4_6 >= 2
- s_1_6 - s_1_4 - 1000 r_1_4_6 >= -1001
t_1_6 - t_1_4 + 1000.000000 u_1_4_6 - 0.000000 s_1_4  + 2000.000000 r_1_4_6 > 10.162500
s_2_6 + s_2_4 + 1000 r_2_4_6 >= 2
- s_2_6 - s_2_4 - 1000 r_2_4_6 >= -1001
t_2_6 - t_2_4 + 1000.000000 u_2_4_6 - 0.000000 s_2_4  + 2000.000000 r_2_4_6 > 4.645900
t_1_7 - t_1_6 - 1000.000000 s_1_6  > -993.434200
t_1_7 - t_2_6 - 1000.000000 s_2_6  > -996.791500
t_2_7 - t_1_6 - 1000.000000 s_1_6  > -993.434200
t_2_7 - t_2_6 - 1000.000000 s_2_6  > -996.791500
s_1_6 + s_1_10 + 1000 r_1_6_10 >= 2
- s_1_6 - s_1_10 - 1000 r_1_6_10 >= -1001
t_1_6 - t_1_10 - 1000.000000 u_1_6_10 - 0.000000 s_1_10  + 2000.000000 r_1_6_10 > -998.773300
s_2_6 + s_2_10 + 1000 r_2_6_10 >= 2
- s_2_6 - s_2_10 - 1000 r_2_6_10 >= -1001
t_2_6 - t_2_10 - 1000.000000 u_2_6_10 - 0.000000 s_2_10  + 2000.000000 r_2_6_10 > -998.635222
s_1_6 + s_1_11 + 1000 r_1_6_11 >= 2
- s_1_6 - s_1_11 - 1000 r_1_6_11 >= -1001
t_1_6 - t_1_11 - 1000.000000 u_1_6_11 - 0.000000 s_1_11  + 2000.000000 r_1_6_11 > -996.520000
s_2_6 + s_2_11 + 1000 r_2_6_11 >= 2
- s_2_6 - s_2_11 - 1000 r_2_6_11 >= -1001
t_2_6 - t_2_11 - 1000.000000 u_2_6_11 - 0.000000 s_2_11  + 2000.000000 r_2_6_11 > -998.253100
s_1_7 + s_1_1 + 1000 r_1_1_7 >= 2
- s_1_7 - s_1_1 - 1000 r_1_1_7 >= -1001
t_1_7 - t_1_1 + 1000.000000 u_1_1_7 - 0.000000 s_1_1  + 2000.000000 r_1_1_7 > 10.071700
s_2_7 + s_2_1 + 1000 r_2_1_7 >= 2
- s_2_7 - s_2_1 - 1000 r_2_1_7 >= -1001
t_2_7 - t_2_1 + 1000.000000 u_2_1_7 - 0.000000 s_2_1  + 2000.000000 r_2_1_7 > 4.497200
s_1_7 + s_1_2 + 1000 r_1_2_7 >= 2
- s_1_7 - s_1_2 - 1000 r_1_2_7 >= -1001
t_1_7 - t_1_2 + 1000.000000 u_1_2_7 - 0.000000 s_1_2  + 2000.000000 r_1_2_7 > 4.972600
s_2_7 + s_2_2 + 1000 r_2_2_7 >= 2
- s_2_7 - s_2_2 - 1000 r_2_2_7 >= -1001
t_2_7 - t_2_2 + 1000.000000 u_2_2_7 - 0.000000 s_2_2  + 2000.000000 r_2_2_7 > 2.741333
s_1_7 + s_1_3 + 1000 r_1_3_7 >= 2
- s_1_7 - s_1_3 - 1000 r_1_3_7 >= -1001
t_1_7 - t_1_3 + 1000.000000 u_1_3_7 - 0.000000 s_1_3  + 2000.000000 r_1_3_7 > 7.334900
s_2_7 + s_2_3 + 1000 r_2_3_7 >= 2
- s_2_7 - s_2_3 - 1000 r_2_3_7 >= -1001
t_2_7 - t_2_3 + 1000.000000 u_2_3_7 - 0.000000 s_2_3  + 2000.000000 r_2_3_7 > 4.114800
s_1_7 + s_1_4 + 1000 r_1_4_7 >= 2
- s_1_7 - s_1_4 - 1000 r_1_4_7 >= -1001
t_1_7 - t_1_4 + 1000.000000 u_1_4_7 - 0.000000 s_1_4  + 2000.000000 r_1_4_7 > 10.162500
s_2_7 + s_2_4 + 1000 r_2_4_7 >= 2
- s_2_7 - s_2_4 - 1000 r_2_4_7 >= -1001
t_2_7 - t_2_4 + 1000.000000 u_2_4_7 - 0.000000 s_2_4  + 2000.000000 r_2_4_7 > 4.645900
t_1_8 - t_1_7 - 1000.000000 s_1_7  > -992.689600
t_1_8 - t_2_7 - 1000.000000 s_2_7  > -996.028500
t_2_8 - t_1_7 - 1000.000000 s_1_7  > -992.689600
t_2_8 - t_2_7 - 1000.000000 s_2_7  > -996.028500
s_1_7 + s_1_10 + 1000 r_1_7_10 >= 2
- s_1_7 - s_1_10 - 1000 r_1_7_10 >= -1001
t_1_7 - t_1_10 - 1000.000000 u_1_7_10 - 0.000000 s_1_10  + 2000.000000 r_1_7_10 > -998.773300
s_2_7 + s_2_10 + 1000 r_2_7_10 >= 2
- s_2_7 - s_2_10 - 1000 r_2_7_10 >= -1001
t_2_7 - t_2_10 - 1000.000000 u_2_7_10 - 0.000000 s_2_10  + 2000.000000 r_2_7_10 > -998.635222
s_1_7 + s_1_11 + 1000 r_1_7_11 >= 2
- s_1_7 - s_1_11 - 1000 r_1_7_11 >= -1001
t_1_7 - t_1_11 - 1000.000000 u_1_7_11 - 0.000000 s_1_11  + 2000.000000 r_1_7_11 > -996.520000
s_2_7 + s_2_11 + 1000 r_2_7_11 >= 2
- s_2_7 - s_2_11 - 1000 r_2_7_11 >= -1001
t_2_7 - t_2_11 - 1000.000000 u_2_7_11 - 0.000000 s_2_11  + 2000.000000 r_2_7_11 > -998.253100
s_1_8 + s_1_1 + 1000 r_1_1_8 >= 2
- s_1_8 - s_1_1 - 1000 r_1_1_8 >= -1001
t_1_8 - t_1_1 + 1000.000000 u_1_1_8 - 0.000000 s_1_1  + 2000.000000 r_1_1_8 > 10.071700
s_2_8 + s_2_1 + 1000 r_2_1_8 >= 2
- s_2_8 - s_2_1 - 1000 r_2_1_8 >= -1001
t_2_8 - t_2_1 + 1000.000000 u_2_1_8 - 0.000000 s_2_1  + 2000.000000 r_2_1_8 > 4.497200
s_1_8 + s_1_2 + 1000 r_1_2_8 >= 2
- s_1_8 - s_1_2 - 1000 r_1_2_8 >= -1001
t_1_8 - t_1_2 + 1000.000000 u_1_2_8 - 0.000000 s_1_2  + 2000.000000 r_1_2_8 > 4.972600
s_2_8 + s_2_2 + 1000 r_2_2_8 >= 2
- s_2_8 - s_2_2 - 1000 r_2_2_8 >= -1001
t_2_8 - t_2_2 + 1000.000000 u_2_2_8 - 0.000000 s_2_2  + 2000.000000 r_2_2_8 > 2.741333
s_1_8 + s_1_3 + 1000 r_1_3_8 >= 2
- s_1_8 - s_1_3 - 1000 r_1_3_8 >= -1001
t_1_8 - t_1_3 + 1000.000000 u_1_3_8 - 0.000000 s_1_3  + 2000.000000 r_1_3_8 > 7.334900
s_2_8 + s_2_3 + 1000 r_2_3_8 >= 2
- s_2_8 - s_2_3 - 1000 r_2_3_8 >= -1001
t_2_8 - t_2_3 + 1000.000000 u_2_3_8 - 0.000000 s_2_3  + 2000.000000 r_2_3_8 > 4.114800
s_1_8 + s_1_4 + 1000 r_1_4_8 >= 2
- s_1_8 - s_1_4 - 1000 r_1_4_8 >= -1001
t_1_8 - t_1_4 + 1000.000000 u_1_4_8 - 0.000000 s_1_4  + 2000.000000 r_1_4_8 > 10.162500
s_2_8 + s_2_4 + 1000 r_2_4_8 >= 2
- s_2_8 - s_2_4 - 1000 r_2_4_8 >= -1001
t_2_8 - t_2_4 + 1000.000000 u_2_4_8 - 0.000000 s_2_4  + 2000.000000 r_2_4_8 > 4.645900
t_1_9 - t_1_8 - 1000.000000 s_1_8  > -990.918600
t_1_9 - t_2_8 - 1000.000000 s_2_8  > -995.695900
t_2_9 - t_1_8 - 1000.000000 s_1_8  > -990.918600
t_2_9 - t_2_8 - 1000.000000 s_2_8  > -995.695900
s_1_8 + s_1_10 + 1000 r_1_8_10 >= 2
- s_1_8 - s_1_10 - 1000 r_1_8_10 >= -1001
t_1_8 - t_1_10 - 1000.000000 u_1_8_10 - 0.000000 s_1_10  + 2000.000000 r_1_8_10 > -998.773300
s_2_8 + s_2_10 + 1000 r_2_8_10 >= 2
- s_2_8 - s_2_10 - 1000 r_2_8_10 >= -1001
t_2_8 - t_2_10 - 1000.000000 u_2_8_10 - 0.000000 s_2_10  + 2000.000000 r_2_8_10 > -998.635222
s_1_8 + s_1_11 + 1000 r_1_8_11 >= 2
- s_1_8 - s_1_11 - 1000 r_1_8_11 >= -1001
t_1_8 - t_1_11 - 1000.000000 u_1_8_11 - 0.000000 s_1_11  + 2000.000000 r_1_8_11 > -996.520000
s_2_8 + s_2_11 + 1000 r_2_8_11 >= 2
- s_2_8 - s_2_11 - 1000 r_2_8_11 >= -1001
t_2_8 - t_2_11 - 1000.000000 u_2_8_11 - 0.000000 s_2_11  + 2000.000000 r_2_8_11 > -998.253100
s_1_9 + s_1_1 + 1000 r_1_1_9 >= 2
- s_1_9 - s_1_1 - 1000 r_1_1_9 >= -1001
t_1_9 - t_1_1 + 1000.000000 u_1_1_9 - 0.000000 s_1_1  + 2000.000000 r_1_1_9 > 10.071700
s_2_9 + s_2_1 + 1000 r_2_1_9 >= 2
- s_2_9 - s_2_1 - 1000 r_2_1_9 >= -1001
t_2_9 - t_2_1 + 1000.000000 u_2_1_9 - 0.000000 s_2_1  + 2000.000000 r_2_1_9 > 4.497200
s_1_9 + s_1_2 + 1000 r_1_2_9 >= 2
- s_1_9 - s_1_2 - 1000 r_1_2_9 >= -1001
t_1_9 - t_1_2 + 1000.000000 u_1_2_9 - 0.000000 s_1_2  + 2000.000000 r_1_2_9 > 4.972600
s_2_9 + s_2_2 + 1000 r_2_2_9 >= 2
- s_2_9 - s_2_2 - 1000 r_2_2_9 >= -1001
t_2_9 - t_2_2 + 1000.000000 u_2_2_9 - 0.000000 s_2_2  + 2000.000000 r_2_2_9 > 2.741333
s_1_9 + s_1_3 + 1000 r_1_3_9 >= 2
- s_1_9 - s_1_3 - 1000 r_1_3_9 >= -1001
t_1_9 - t_1_3 + 1000.000000 u_1_3_9 - 0.000000 s_1_3  + 2000.000000 r_1_3_9 > 7.334900
s_2_9 + s_2_3 + 1000 r_2_3_9 >= 2
- s_2_9 - s_2_3 - 1000 r_2_3_9 >= -1001
t_2_9 - t_2_3 + 1000.000000 u_2_3_9 - 0.000000 s_2_3  + 2000.000000 r_2_3_9 > 4.114800
s_1_9 + s_1_4 + 1000 r_1_4_9 >= 2
- s_1_9 - s_1_4 - 1000 r_1_4_9 >= -1001
t_1_9 - t_1_4 + 1000.000000 u_1_4_9 - 0.000000 s_1_4  + 2000.000000 r_1_4_9 > 10.162500
s_2_9 + s_2_4 + 1000 r_2_4_9 >= 2
- s_2_9 - s_2_4 - 1000 r_2_4_9 >= -1001
t_2_9 - t_2_4 + 1000.000000 u_2_4_9 - 0.000000 s_2_4  + 2000.000000 r_2_4_9 > 4.645900
s_1_9 + s_1_10 + 1000 r_1_9_10 >= 2
- s_1_9 - s_1_10 - 1000 r_1_9_10 >= -1001
t_1_9 - t_1_10 - 1000.000000 u_1_9_10 - 0.000000 s_1_10  + 2000.000000 r_1_9_10 > -998.773300
s_2_9 + s_2_10 + 1000 r_2_9_10 >= 2
- s_2_9 - s_2_10 - 1000 r_2_9_10 >= -1001
t_2_9 - t_2_10 - 1000.000000 u_2_9_10 - 0.000000 s_2_10  + 2000.000000 r_2_9_10 > -998.635222
s_1_9 + s_1_11 + 1000 r_1_9_11 >= 2
- s_1_9 - s_1_11 - 1000 r_1_9_11 >= -1001
t_1_9 - t_1_11 - 1000.000000 u_1_9_11 - 0.000000 s_1_11  + 2000.000000 r_1_9_11 > -996.520000
s_2_9 + s_2_11 + 1000 r_2_9_11 >= 2
- s_2_9 - s_2_11 - 1000 r_2_9_11 >= -1001
t_2_9 - t_2_11 - 1000.000000 u_2_9_11 - 0.000000 s_2_11  + 2000.000000 r_2_9_11 > -998.253100
t_1_12 - t_1_9 - 1000.000000 s_1_9  > -990.438700
t_1_12 - t_2_9 - 1000.000000 s_2_9  > -995.177300
t_2_12 - t_1_9 - 1000.000000 s_1_9  > -990.438700
t_2_12 - t_2_9 - 1000.000000 s_2_9  > -995.177300
s_1_10 + s_1_1 + 1000 r_1_1_10 >= 2
- s_1_10 - s_1_1 - 1000 r_1_1_10 >= -1001
t_1_10 - t_1_1 + 1000.000000 u_1_1_10 - 0.000000 s_1_1  + 2000.000000 r_1_1_10 > 10.071700
s_2_10 + s_2_1 + 1000 r_2_1_10 >= 2
- s_2_10 - s_2_1 - 1000 r_2_1_10 >= -1001
t_2_10 - t_2_1 + 1000.000000 u_2_1_10 - 0.000000 s_2_1  + 2000.000000 r_2_1_10 > 4.497200
s_1_10 + s_1_2 + 1000 r_1_2_10 >= 2
- s_1_10 - s_1_2 - 1000 r_1_2_10 >= -1001
t_1_10 - t_1_2 + 1000.000000 u_1_2_10 - 0.000000 s_1_2  + 2000.000000 r_1_2_10 > 4.972600
s_2_10 + s_2_2 + 1000 r_2_2_10 >= 2
- s_2_10 - s_2_2 - 1000 r_2_2_10 >= -1001
t_2_10 - t_2_2 + 1000.000000 u_2_2_10 - 0.000000 s_2_2  + 2000.000000 r_2_2_10 > 2.741333
s_1_10 + s_1_3 + 1000 r_1_3_10 >= 2
- s_1_10 - s_1_3 - 1000 r_1_3_10 >= -1001
t_1_10 - t_1_3 + 1000.000000 u_1_3_10 - 0.000000 s_1_3  + 2000.000000 r_1_3_10 > 7.334900
s_2_10 + s_2_3 + 1000 r_2_3_10 >= 2
- s_2_10 - s_2_3 - 1000 r_2_3_10 >= -1001
t_2_10 - t_2_3 + 1000.000000 u_2_3_10 - 0.000000 s_2_3  + 2000.000000 r_2_3_10 > 4.114800
s_1_10 + s_1_4 + 1000 r_1_4_10 >= 2
- s_1_10 - s_1_4 - 1000 r_1_4_10 >= -1001
t_1_10 - t_1_4 + 1000.000000 u_1_4_10 - 0.000000 s_1_4  + 2000.000000 r_1_4_10 > 10.162500
s_2_10 + s_2_4 + 1000 r_2_4_10 >= 2
- s_2_10 - s_2_4 - 1000 r_2_4_10 >= -1001
t_2_10 - t_2_4 + 1000.000000 u_2_4_10 - 0.000000 s_2_4  + 2000.000000 r_2_4_10 > 4.645900
s_1_10 + s_1_5 + 1000 r_1_5_10 >= 2
- s_1_10 - s_1_5 - 1000 r_1_5_10 >= -1001
t_1_10 - t_1_5 + 1000.000000 u_1_5_10 - 0.000000 s_1_5  + 2000.000000 r_1_5_10 > 5.047200
s_2_10 + s_2_5 + 1000 r_2_5_10 >= 2
- s_2_10 - s_2_5 - 1000 r_2_5_10 >= -1001
t_2_10 - t_2_5 + 1000.000000 u_2_5_10 - 0.000000 s_2_5  + 2000.000000 r_2_5_10 > 2.629778
s_1_10 + s_1_6 + 1000 r_1_6_10 >= 2
- s_1_10 - s_1_6 - 1000 r_1_6_10 >= -1001
t_1_10 - t_1_6 + 1000.000000 u_1_6_10 - 0.000000 s_1_6  + 2000.000000 r_1_6_10 > 6.565800
s_2_10 + s_2_6 + 1000 r_2_6_10 >= 2
- s_2_10 - s_2_6 - 1000 r_2_6_10 >= -1001
t_2_10 - t_2_6 + 1000.000000 u_2_6_10 - 0.000000 s_2_6  + 2000.000000 r_2_6_10 > 3.208500
s_1_10 + s_1_7 + 1000 r_1_7_10 >= 2
- s_1_10 - s_1_7 - 1000 r_1_7_10 >= -1001
t_1_10 - t_1_7 + 1000.000000 u_1_7_10 - 0.000000 s_1_7  + 2000.000000 r_1_7_10 > 7.310400
s_2_10 + s_2_7 + 1000 r_2_7_10 >= 2
- s_2_10 - s_2_7 - 1000 r_2_7_10 >= -1001
t_2_10 - t_2_7 + 1000.000000 u_2_7_10 - 0.000000 s_2_7  + 2000.000000 r_2_7_10 > 3.971500
s_1_10 + s_1_8 + 1000 r_1_8_10 >= 2
- s_1_10 - s_1_8 - 1000 r_1_8_10 >= -1001
t_1_10 - t_1_8 + 1000.000000 u_1_8_10 - 0.000000 s_1_8  + 2000.000000 r_1_8_10 > 9.081400
s_2_10 + s_2_8 + 1000 r_2_8_10 >= 2
- s_2_10 - s_2_8 - 1000 r_2_8_10 >= -1001
t_2_10 - t_2_8 + 1000.000000 u_2_8_10 - 0.000000 s_2_8  + 2000.000000 r_2_8_10 > 4.304100
s_1_10 + s_1_9 + 1000 r_1_9_10 >= 2
- s_1_10 - s_1_9 - 1000 r_1_9_10 >= -1001
t_1_10 - t_1_9 + 1000.000000 u_1_9_10 - 0.000000 s_1_9  + 2000.000000 r_1_9_10 > 9.561300
s_2_10 + s_2_9 + 1000 r_2_9_10 >= 2
- s_2_10 - s_2_9 - 1000 r_2_9_10 >= -1001
t_2_10 - t_2_9 + 1000.000000 u_2_9_10 - 0.000000 s_2_9  + 2000.000000 r_2_9_10 > 4.822700
t_1_11 - t_1_10 - 1000.000000 s_1_10  > -998.773300
t_1_11 - t_2_10 - 1000.000000 s_2_10  > -998.635222
t_2_11 - t_1_10 - 1000.000000 s_1_10  > -998.773300
t_2_11 - t_2_10 - 1000.000000 s_2_10  > -998.635222
s_1_11 + s_1_1 + 1000 r_1_1_11 >= 2
- s_1_11 - s_1_1 - 1000 r_1_1_11 >= -1001
t_1_11 - t_1_1 + 1000.000000 u_1_1_11 - 0.000000 s_1_1  + 2000.000000 r_1_1_11 > 10.071700
s_2_11 + s_2_1 + 1000 r_2_1_11 >= 2
- s_2_11 - s_2_1 - 1000 r_2_1_11 >= -1001
t_2_11 - t_2_1 + 1000.000000 u_2_1_11 - 0.000000 s_2_1  + 2000.000000 r_2_1_11 > 4.497200
s_1_11 + s_1_2 + 1000 r_1_2_11 >= 2
- s_1_11 - s_1_2 - 1000 r_1_2_11 >= -1001
t_1_11 - t_1_2 + 1000.000000 u_1_2_11 - 0.000000 s_1_2  + 2000.000000 r_1_2_11 > 4.972600
s_2_11 + s_2_2 + 1000 r_2_2_11 >= 2
- s_2_11 - s_2_2 - 1000 r_2_2_11 >= -1001
t_2_11 - t_2_2 + 1000.000000 u_2_2_11 - 0.000000 s_2_2  + 2000.000000 r_2_2_11 > 2.741333
s_1_11 + s_1_3 + 1000 r_1_3_11 >= 2
- s_1_11 - s_1_3 - 1000 r_1_3_11 >= -1001
t_1_11 - t_1_3 + 1000.000000 u_1_3_11 - 0.000000 s_1_3  + 2000.000000 r_1_3_11 > 7.334900
s_2_11 + s_2_3 + 1000 r_2_3_11 >= 2
- s_2_11 - s_2_3 - 1000 r_2_3_11 >= -1001
t_2_11 - t_2_3 + 1000.000000 u_2_3_11 - 0.000000 s_2_3  + 2000.000000 r_2_3_11 > 4.114800
s_1_11 + s_1_4 + 1000 r_1_4_11 >= 2
- s_1_11 - s_1_4 - 1000 r_1_4_11 >= -1001
t_1_11 - t_1_4 + 1000.000000 u_1_4_11 - 0.000000 s_1_4  + 2000.000000 r_1_4_11 > 10.162500
s_2_11 + s_2_4 + 1000 r_2_4_11 >= 2
- s_2_11 - s_2_4 - 1000 r_2_4_11 >= -1001
t_2_11 - t_2_4 + 1000.000000 u_2_4_11 - 0.000000 s_2_4  + 2000.000000 r_2_4_11 > 4.645900
s_1_11 + s_1_5 + 1000 r_1_5_11 >= 2
- s_1_11 - s_1_5 - 1000 r_1_5_11 >= -1001
t_1_11 - t_1_5 + 1000.000000 u_1_5_11 - 0.000000 s_1_5  + 2000.000000 r_1_5_11 > 5.047200
s_2_11 + s_2_5 + 1000 r_2_5_11 >= 2
- s_2_11 - s_2_5 - 1000 r_2_5_11 >= -1001
t_2_11 - t_2_5 + 1000.000000 u_2_5_11 - 0.000000 s_2_5  + 2000.000000 r_2_5_11 > 2.629778
s_1_11 + s_1_6 + 1000 r_1_6_11 >= 2
- s_1_11 - s_1_6 - 1000 r_1_6_11 >= -1001
t_1_11 - t_1_6 + 1000.000000 u_1_6_11 - 0.000000 s_1_6  + 2000.000000 r_1_6_11 > 6.565800
s_2_11 + s_2_6 + 1000 r_2_6_11 >= 2
- s_2_11 - s_2_6 - 1000 r_2_6_11 >= -1001
t_2_11 - t_2_6 + 1000.000000 u_2_6_11 - 0.000000 s_2_6  + 2000.000000 r_2_6_11 > 3.208500
s_1_11 + s_1_7 + 1000 r_1_7_11 >= 2
- s_1_11 - s_1_7 - 1000 r_1_7_11 >= -1001
t_1_11 - t_1_7 + 1000.000000 u_1_7_11 - 0.000000 s_1_7  + 2000.000000 r_1_7_11 > 7.310400
s_2_11 + s_2_7 + 1000 r_2_7_11 >= 2
- s_2_11 - s_2_7 - 1000 r_2_7_11 >= -1001
t_2_11 - t_2_7 + 1000.000000 u_2_7_11 - 0.000000 s_2_7  + 2000.000000 r_2_7_11 > 3.971500
s_1_11 + s_1_8 + 1000 r_1_8_11 >= 2
- s_1_11 - s_1_8 - 1000 r_1_8_11 >= -1001
t_1_11 - t_1_8 + 1000.000000 u_1_8_11 - 0.000000 s_1_8  + 2000.000000 r_1_8_11 > 9.081400
s_2_11 + s_2_8 + 1000 r_2_8_11 >= 2
- s_2_11 - s_2_8 - 1000 r_2_8_11 >= -1001
t_2_11 - t_2_8 + 1000.000000 u_2_8_11 - 0.000000 s_2_8  + 2000.000000 r_2_8_11 > 4.304100
s_1_11 + s_1_9 + 1000 r_1_9_11 >= 2
- s_1_11 - s_1_9 - 1000 r_1_9_11 >= -1001
t_1_11 - t_1_9 + 1000.000000 u_1_9_11 - 0.000000 s_1_9  + 2000.000000 r_1_9_11 > 9.561300
s_2_11 + s_2_9 + 1000 r_2_9_11 >= 2
- s_2_11 - s_2_9 - 1000 r_2_9_11 >= -1001
t_2_11 - t_2_9 + 1000.000000 u_2_9_11 - 0.000000 s_2_9  + 2000.000000 r_2_9_11 > 4.822700
t_1_12 - t_1_11 - 1000.000000 s_1_11  > -996.520000
t_1_12 - t_2_11 - 1000.000000 s_2_11  > -998.253100
t_2_12 - t_1_11 - 1000.000000 s_1_11  > -996.520000
t_2_12 - t_2_11 - 1000.000000 s_2_11  > -998.253100
Binary
s_1_1
s_2_1
s_1_2
s_2_2
s_1_3
s_2_3
s_1_4
s_2_4
s_1_5
s_2_5
s_1_6
s_2_6
s_1_7
s_2_7
s_1_8
s_2_8
s_1_9
s_2_9
s_1_10
s_2_10
s_1_11
s_2_11
s_1_12
s_2_12
u_1_1_2
r_1_1_2
u_2_1_2
r_2_1_2
u_1_1_3
r_1_1_3
u_2_1_3
r_2_1_3
u_1_1_4
r_1_1_4
u_2_1_4
r_2_1_4
u_1_1_5
r_1_1_5
u_2_1_5
r_2_1_5
u_1_1_6
r_1_1_6
u_2_1_6
r_2_1_6
u_1_1_7
r_1_1_7
u_2_1_7
r_2_1_7
u_1_1_8
r_1_1_8
u_2_1_8
r_2_1_8
u_1_1_9
r_1_1_9
u_2_1_9
r_2_1_9
u_1_1_10
r_1_1_10
u_2_1_10
r_2_1_10
u_1_1_11
r_1_1_11
u_2_1_11
r_2_1_11
u_1_2_5
r_1_2_5
u_2_2_5
r_2_2_5
u_1_2_6
r_1_2_6
u_2_2_6
r_2_2_6
u_1_2_7
r_1_2_7
u_2_2_7
r_2_2_7
u_1_2_8
r_1_2_8
u_2_2_8
r_2_2_8
u_1_2_9
r_1_2_9
u_2_2_9
r_2_2_9
u_1_2_10
r_1_2_10
u_2_2_10
r_2_2_10
u_1_2_11
r_1_2_11
u_2_2_11
r_2_2_11
u_1_3_5
r_1_3_5
u_2_3_5
r_2_3_5
u_1_3_6
r_1_3_6
u_2_3_6
r_2_3_6
u_1_3_7
r_1_3_7
u_2_3_7
r_2_3_7
u_1_3_8
r_1_3_8
u_2_3_8
r_2_3_8
u_1_3_9
r_1_3_9
u_2_3_9
r_2_3_9
u_1_3_10
r_1_3_10
u_2_3_10
r_2_3_10
u_1_3_11
r_1_3_11
u_2_3_11
r_2_3_11
u_1_4_5
r_1_4_5
u_2_4_5
r_2_4_5
u_1_4_6
r_1_4_6
u_2_4_6
r_2_4_6
u_1_4_7
r_1_4_7
u_2_4_7
r_2_4_7
u_1_4_8
r_1_4_8
u_2_4_8
r_2_4_8
u_1_4_9
r_1_4_9
u_2_4_9
r_2_4_9
u_1_4_10
r_1_4_10
u_2_4_10
r_2_4_10
u_1_4_11
r_1_4_11
u_2_4_11
r_2_4_11
u_1_5_10
r_1_5_10
u_2_5_10
r_2_5_10
u_1_5_11
r_1_5_11
u_2_5_11
r_2_5_11
u_1_6_10
r_1_6_10
u_2_6_10
r_2_6_10
u_1_6_11
r_1_6_11
u_2_6_11
r_2_6_11
u_1_7_10
r_1_7_10
u_2_7_10
r_2_7_10
u_1_7_11
r_1_7_11
u_2_7_11
r_2_7_11
u_1_8_10
r_1_8_10
u_2_8_10
r_2_8_10
u_1_8_11
r_1_8_11
u_2_8_11
r_2_8_11
u_1_9_10
r_1_9_10
u_2_9_10
r_2_9_10
u_1_9_11
r_1_9_11
u_2_9_11
r_2_9_11

End
